50
    1    74    74
    2    47    47
    3    71    71
    4    83    83
    5    61    61
    6    25    25
    7    58    58
    8     9     9
    9    35    35
   10    14    14
   11    92    92
   12    98    98
   13    60    60
   14    34    34
   15    70    70
   16     4     4
   17    84    84
   18    95    95
   19    89    89
   20    43    43
   21     6     6
   22   100   100
   23    66    66
   24    32    32
   25    19    19
   26    12    12
   27    39    39
   28    35    35
   29    83    83
   30    36    36
   31    27    27
   32     9     9
   33    96    96
   34    35    35
   35    11    11
   36    99    99
   37    28    28
   38    27    27
   39    33    33
   40    66    66
   41    76    76
   42    54    54
   43    54    54
   44    80    80
   45    79    79
   46    77    77
   47    89    89
   48    29    29
   49     7     7
   50    70    70
1310
